nN = 10;
nR = 40;
nH = 2;

a = [[17, 21, 25, 19, 24, 22, 24, 20, 23, 15, 16, 17, 23, 21, 20, 21, 22, 19, 24, 22, 16, 23, 24, 16, 24, 15, 17, 17, 19, 19, 25, 18, 21, 15, 21, 23, 18, 21, 19, 16], [16, 16, 18, 15, 16, 22, 20, 24, 25, 23, 20, 25, 15, 16, 22, 19, 22, 16, 23, 18, 21, 24, 22, 22, 17, 25, 15, 24, 16, 16, 18, 20, 15, 15, 16, 24, 16, 20, 17, 21], [25, 24, 24, 18, 20, 19, 25, 17, 19, 19, 22, 18, 19, 19, 24, 22, 22, 20, 16, 25, 19, 25, 19, 21, 20, 24, 20, 20, 15, 24, 23, 23, 17, 15, 24, 20, 23, 19, 19, 22], [21, 18, 19, 21, 23, 15, 17, 19, 25, 25, 15, 20, 18, 18, 15, 21, 22, 16, 25, 17, 17, 16, 15, 17, 24, 25, 24, 22, 23, 24, 20, 17, 20, 16, 24, 18, 21, 22, 20, 16], [23, 22, 15, 17, 25, 25, 24, 20, 21, 23, 17, 23, 21, 18, 18, 22, 18, 15, 15, 21, 19, 24, 16, 19, 20, 16, 23, 17, 15, 24, 15, 24, 19, 21, 17, 16, 16, 22, 16, 24], [19, 17, 19, 24, 25, 23, 19, 15, 22, 23, 15, 22, 19, 19, 17, 16, 22, 19, 20, 22, 25, 15, 24, 24, 24, 22, 22, 19, 21, 23, 24, 17, 23, 17, 20, 22, 20, 25, 19, 20], [17, 25, 23, 21, 21, 16, 18, 19, 20, 19, 17, 21, 23, 16, 19, 23, 23, 18, 24, 15, 19, 22, 25, 21, 19, 17, 25, 18, 22, 21, 16, 15, 20, 15, 19, 24, 25, 18, 15, 21], [15, 23, 18, 15, 24, 18, 16, 24, 25, 24, 17, 25, 21, 22, 22, 18, 20, 16, 16, 23, 23, 23, 15, 24, 20, 20, 18, 25, 16, 22, 20, 23, 15, 17, 19, 16, 18, 16, 16, 23], [18, 23, 24, 21, 18, 16, 18, 24, 16, 21, 21, 23, 25, 17, 19, 20, 17, 15, 23, 16, 24, 21, 22, 15, 19, 22, 22, 17, 25, 21, 16, 15, 21, 20, 25, 21, 16, 17, 15, 21], [21, 16, 17, 18, 18, 23, 18, 22, 24, 22, 21, 17, 24, 25, 24, 15, 25, 17, 15, 19, 20, 20, 25, 25, 18, 25, 17, 21, 21, 15, 24, 16, 24, 17, 22, 15, 22, 19, 24, 17]];
c = [[[0, 0, 0, 0, 0, 0, 0, 0, 0, 0, 0, 0, 0, 0, 0, 0, 0, 0, 0, 0, 0, 0, 0, 0, 0, 0, 0, 0, 0, 0, 0, 0, 0, 0, 0, 0, 0, 0, 0, 0], [34, 36, 33, 40, 46, 46, 40, 49, 37, 48, 41, 48, 40, 36, 48, 49, 42, 44, 41, 36, 45, 33, 35, 39, 50, 37, 33, 49, 48, 49, 37, 44, 43, 47, 37, 44, 33, 31, 48, 42], [35, 47, 42, 46, 43, 47, 47, 39, 38, 44, 50, 36, 44, 47, 35, 36, 43, 43, 40, 35, 31, 36, 37, 32, 34, 43, 47, 40, 35, 35, 32, 39, 40, 33, 41, 40, 43, 34, 50, 50], [49, 43, 46, 47, 43, 47, 36, 49, 30, 46, 40, 38, 44, 31, 50, 40, 30, 41, 37, 49, 30, 39, 34, 40, 42, 48, 41, 39, 49, 47, 34, 40, 45, 33, 34, 47, 48, 44, 40, 42], [47, 31, 30, 45, 34, 37, 50, 39, 43, 32, 38, 38, 40, 33, 33, 32, 37, 33, 39, 47, 34, 47, 49, 30, 43, 32, 50, 35, 46, 42, 42, 46, 40, 36, 40, 49, 34, 39, 43, 35], [30, 37, 32, 33, 45, 35, 32, 35, 45, 41, 30, 48, 42, 41, 42, 38, 34, 42, 44, 48, 50, 49, 43, 30, 43, 37, 44, 48, 34, 42, 45, 35, 35, 36, 47, 34, 31, 36, 44, 46], [42, 43, 43, 42, 34, 38, 38, 41, 36, 37, 44, 32, 44, 34, 49, 47, 34, 33, 37, 38, 40, 48, 41, 37, 46, 46, 42, 32, 47, 44, 49, 44, 47, 34, 31, 41, 48, 45, 36, 42], [45, 40, 33, 50, 45, 46, 38, 30, 33, 40, 37, 49, 41, 45, 33, 37, 41, 44, 37, 49, 50, 40, 49, 35, 36, 41, 34, 30, 49, 31, 48, 32, 36, 37, 42, 41, 45, 46, 31, 31], [47, 37, 47, 39, 42, 45, 46, 42, 30, 41, 31, 49, 48, 49, 36, 50, 38, 39, 39, 43, 31, 50, 43, 42, 35, 48, 40, 41, 36, 38, 36, 44, 40, 43, 48, 31, 48, 42, 50, 35], [38, 40, 42, 47, 43, 32, 48, 35, 31, 43, 48, 32, 33, 48, 41, 36, 31, 30, 48, 33, 45, 34, 49, 41, 37, 47, 50, 32, 47, 38, 38, 48, 50, 42, 48, 32, 37, 36, 47, 47]], [[0, 0, 0, 0, 0, 0, 0, 0, 0, 0, 0, 0, 0, 0, 0, 0, 0, 0, 0, 0, 0, 0, 0, 0, 0, 0, 0, 0, 0, 0, 0, 0, 0, 0, 0, 0, 0, 0, 0, 0], [0, 0, 0, 0, 0, 0, 0, 0, 0, 0, 0, 0, 0, 0, 0, 0, 0, 0, 0, 0, 0, 0, 0, 0, 0, 0, 0, 0, 0, 0, 0, 0, 0, 0, 0, 0, 0, 0, 0, 0], [49, 46, 48, 49, 42, 46, 48, 32, 40, 39, 45, 43, 43, 40, 38, 49, 38, 36, 42, 44, 47, 40, 40, 48, 32, 35, 31, 31, 40, 34, 46, 33, 40, 34, 44, 36, 34, 50, 31, 44], [34, 40, 30, 40, 50, 33, 37, 34, 40, 48, 33, 43, 46, 34, 42, 45, 31, 48, 36, 39, 50, 32, 48, 46, 39, 34, 35, 33, 41, 43, 32, 34, 46, 36, 48, 36, 30, 30, 49, 50], [43, 40, 32, 49, 36, 32, 31, 38, 34, 49, 31, 39, 31, 30, 35, 45, 46, 47, 44, 50, 43, 30, 41, 41, 50, 32, 41, 30, 45, 38, 35, 43, 34, 45, 50, 49, 39, 44, 35, 41], [31, 43, 39, 42, 42, 45, 35, 31, 46, 46, 37, 43, 35, 33, 45, 44, 46, 47, 44, 43, 49, 36, 35, 35, 33, 37, 40, 31, 30, 41, 37, 33, 39, 50, 44, 31, 44, 33, 35, 34], [39, 43, 36, 48, 31, 40, 47, 36, 49, 40, 50, 31, 35, 46, 32, 35, 40, 49, 45, 46, 30, 48, 46, 44, 42, 45, 33, 44, 36, 34, 39, 36, 39, 34, 44, 45, 44, 40, 34, 47], [33, 43, 47, 35, 39, 37, 30, 44, 39, 47, 40, 44, 46, 40, 48, 31, 42, 45, 44, 50, 41, 31, 38, 41, 48, 36, 45, 31, 40, 46, 41, 35, 36, 39, 45, 46, 50, 47, 50, 35], [32, 36, 36, 48, 35, 35, 36, 48, 36, 49, 41, 42, 42, 50, 40, 50, 48, 40, 42, 40, 50, 50, 43, 30, 35, 45, 39, 44, 39, 44, 45, 40, 46, 47, 36, 32, 39, 37, 40, 31], [44, 31, 32, 44, 39, 49, 43, 38, 43, 34, 44, 32, 49, 34, 50, 43, 39, 39, 30, 31, 47, 49, 50, 31, 40, 40, 47, 41, 33, 50, 42, 48, 44, 45, 37, 34, 30, 47, 33, 30]], [[0, 0, 0, 0, 0, 0, 0, 0, 0, 0, 0, 0, 0, 0, 0, 0, 0, 0, 0, 0, 0, 0, 0, 0, 0, 0, 0, 0, 0, 0, 0, 0, 0, 0, 0, 0, 0, 0, 0, 0], [0, 0, 0, 0, 0, 0, 0, 0, 0, 0, 0, 0, 0, 0, 0, 0, 0, 0, 0, 0, 0, 0, 0, 0, 0, 0, 0, 0, 0, 0, 0, 0, 0, 0, 0, 0, 0, 0, 0, 0], [0, 0, 0, 0, 0, 0, 0, 0, 0, 0, 0, 0, 0, 0, 0, 0, 0, 0, 0, 0, 0, 0, 0, 0, 0, 0, 0, 0, 0, 0, 0, 0, 0, 0, 0, 0, 0, 0, 0, 0], [38, 43, 31, 43, 48, 35, 32, 41, 39, 46, 50, 37, 31, 49, 46, 39, 50, 35, 44, 49, 48, 46, 50, 47, 38, 31, 48, 33, 37, 35, 32, 37, 45, 33, 47, 48, 32, 43, 49, 34], [32, 36, 40, 40, 46, 30, 50, 46, 39, 35, 39, 41, 46, 36, 40, 30, 47, 33, 37, 38, 48, 39, 30, 46, 44, 31, 30, 34, 44, 34, 46, 33, 43, 46, 45, 40, 44, 38, 46, 36], [49, 39, 35, 36, 49, 38, 41, 46, 34, 39, 48, 42, 37, 33, 44, 38, 47, 45, 41, 36, 41, 38, 37, 34, 48, 50, 34, 47, 50, 44, 30, 40, 30, 42, 33, 42, 45, 36, 48, 47], [41, 37, 31, 42, 49, 38, 30, 39, 44, 34, 34, 30, 42, 49, 30, 30, 40, 42, 32, 30, 49, 31, 47, 45, 44, 42, 37, 30, 41, 46, 31, 38, 43, 46, 44, 39, 33, 37, 35, 43], [30, 40, 36, 34, 42, 30, 36, 31, 37, 33, 31, 37, 39, 41, 44, 49, 48, 37, 35, 42, 36, 49, 39, 30, 49, 45, 44, 47, 45, 32, 43, 44, 38, 32, 47, 31, 42, 45, 37, 32], [37, 44, 36, 48, 43, 48, 43, 41, 30, 43, 50, 42, 40, 42, 36, 35, 47, 34, 41, 36, 36, 42, 45, 37, 37, 30, 48, 40, 37, 39, 37, 39, 34, 34, 40, 33, 45, 30, 48, 49], [45, 35, 31, 38, 33, 46, 39, 44, 39, 32, 43, 44, 30, 41, 49, 34, 50, 37, 33, 34, 30, 50, 45, 33, 36, 39, 34, 33, 42, 43, 41, 38, 42, 46, 33, 37, 33, 39, 46, 48]], [[0, 0, 0, 0, 0, 0, 0, 0, 0, 0, 0, 0, 0, 0, 0, 0, 0, 0, 0, 0, 0, 0, 0, 0, 0, 0, 0, 0, 0, 0, 0, 0, 0, 0, 0, 0, 0, 0, 0, 0], [0, 0, 0, 0, 0, 0, 0, 0, 0, 0, 0, 0, 0, 0, 0, 0, 0, 0, 0, 0, 0, 0, 0, 0, 0, 0, 0, 0, 0, 0, 0, 0, 0, 0, 0, 0, 0, 0, 0, 0], [0, 0, 0, 0, 0, 0, 0, 0, 0, 0, 0, 0, 0, 0, 0, 0, 0, 0, 0, 0, 0, 0, 0, 0, 0, 0, 0, 0, 0, 0, 0, 0, 0, 0, 0, 0, 0, 0, 0, 0], [0, 0, 0, 0, 0, 0, 0, 0, 0, 0, 0, 0, 0, 0, 0, 0, 0, 0, 0, 0, 0, 0, 0, 0, 0, 0, 0, 0, 0, 0, 0, 0, 0, 0, 0, 0, 0, 0, 0, 0], [47, 37, 50, 46, 35, 46, 44, 46, 33, 47, 38, 48, 43, 49, 34, 37, 50, 35, 32, 34, 50, 32, 43, 40, 41, 36, 48, 37, 50, 31, 50, 30, 32, 34, 32, 32, 38, 40, 32, 40], [38, 37, 45, 50, 50, 37, 30, 30, 39, 42, 35, 49, 43, 31, 36, 35, 41, 39, 33, 50, 39, 35, 49, 37, 38, 31, 39, 38, 33, 37, 41, 48, 50, 31, 30, 43, 34, 34, 49, 34], [37, 41, 45, 36, 33, 46, 37, 42, 30, 41, 44, 45, 50, 39, 47, 42, 41, 41, 44, 46, 39, 38, 32, 42, 39, 49, 41, 38, 43, 36, 40, 38, 42, 47, 39, 40, 45, 30, 49, 48], [37, 35, 34, 50, 43, 37, 33, 40, 36, 41, 37, 34, 48, 37, 31, 47, 49, 36, 38, 45, 45, 37, 48, 34, 46, 41, 47, 40, 50, 35, 40, 40, 37, 41, 48, 39, 37, 30, 30, 48], [41, 37, 45, 38, 49, 39, 33, 44, 35, 34, 40, 31, 32, 31, 33, 41, 42, 38, 43, 41, 37, 46, 35, 46, 40, 39, 35, 38, 50, 46, 38, 46, 30, 33, 47, 49, 30, 38, 30, 46], [34, 37, 46, 34, 45, 37, 50, 49, 46, 41, 49, 40, 33, 39, 50, 33, 49, 31, 47, 30, 31, 45, 44, 35, 30, 32, 35, 37, 48, 48, 45, 35, 34, 48, 43, 33, 32, 46, 43, 40]], [[0, 0, 0, 0, 0, 0, 0, 0, 0, 0, 0, 0, 0, 0, 0, 0, 0, 0, 0, 0, 0, 0, 0, 0, 0, 0, 0, 0, 0, 0, 0, 0, 0, 0, 0, 0, 0, 0, 0, 0], [0, 0, 0, 0, 0, 0, 0, 0, 0, 0, 0, 0, 0, 0, 0, 0, 0, 0, 0, 0, 0, 0, 0, 0, 0, 0, 0, 0, 0, 0, 0, 0, 0, 0, 0, 0, 0, 0, 0, 0], [0, 0, 0, 0, 0, 0, 0, 0, 0, 0, 0, 0, 0, 0, 0, 0, 0, 0, 0, 0, 0, 0, 0, 0, 0, 0, 0, 0, 0, 0, 0, 0, 0, 0, 0, 0, 0, 0, 0, 0], [0, 0, 0, 0, 0, 0, 0, 0, 0, 0, 0, 0, 0, 0, 0, 0, 0, 0, 0, 0, 0, 0, 0, 0, 0, 0, 0, 0, 0, 0, 0, 0, 0, 0, 0, 0, 0, 0, 0, 0], [0, 0, 0, 0, 0, 0, 0, 0, 0, 0, 0, 0, 0, 0, 0, 0, 0, 0, 0, 0, 0, 0, 0, 0, 0, 0, 0, 0, 0, 0, 0, 0, 0, 0, 0, 0, 0, 0, 0, 0], [48, 39, 47, 48, 36, 31, 46, 30, 43, 32, 36, 30, 30, 30, 31, 33, 37, 38, 45, 30, 32, 40, 40, 45, 48, 30, 47, 49, 39, 49, 50, 47, 44, 45, 41, 40, 38, 32, 39, 42], [46, 31, 31, 37, 33, 31, 34, 40, 40, 34, 35, 49, 38, 41, 33, 39, 42, 35, 38, 35, 34, 48, 34, 42, 39, 40, 31, 50, 36, 32, 42, 49, 48, 39, 50, 39, 50, 36, 48, 32], [48, 37, 35, 32, 31, 45, 46, 37, 36, 48, 41, 50, 42, 34, 44, 50, 34, 48, 48, 39, 32, 31, 47, 35, 31, 40, 38, 30, 30, 44, 32, 35, 47, 45, 47, 33, 45, 45, 42, 48], [40, 36, 50, 37, 46, 48, 41, 32, 32, 47, 42, 43, 42, 44, 45, 48, 44, 33, 41, 35, 34, 35, 46, 46, 35, 32, 42, 50, 40, 38, 32, 39, 43, 39, 31, 43, 40, 38, 41, 43], [46, 31, 44, 33, 50, 31, 36, 40, 31, 36, 34, 34, 39, 40, 31, 30, 37, 49, 38, 48, 33, 46, 47, 30, 35, 45, 41, 42, 47, 32, 37, 44, 33, 32, 41, 35, 30, 33, 37, 33]], [[0, 0, 0, 0, 0, 0, 0, 0, 0, 0, 0, 0, 0, 0, 0, 0, 0, 0, 0, 0, 0, 0, 0, 0, 0, 0, 0, 0, 0, 0, 0, 0, 0, 0, 0, 0, 0, 0, 0, 0], [0, 0, 0, 0, 0, 0, 0, 0, 0, 0, 0, 0, 0, 0, 0, 0, 0, 0, 0, 0, 0, 0, 0, 0, 0, 0, 0, 0, 0, 0, 0, 0, 0, 0, 0, 0, 0, 0, 0, 0], [0, 0, 0, 0, 0, 0, 0, 0, 0, 0, 0, 0, 0, 0, 0, 0, 0, 0, 0, 0, 0, 0, 0, 0, 0, 0, 0, 0, 0, 0, 0, 0, 0, 0, 0, 0, 0, 0, 0, 0], [0, 0, 0, 0, 0, 0, 0, 0, 0, 0, 0, 0, 0, 0, 0, 0, 0, 0, 0, 0, 0, 0, 0, 0, 0, 0, 0, 0, 0, 0, 0, 0, 0, 0, 0, 0, 0, 0, 0, 0], [0, 0, 0, 0, 0, 0, 0, 0, 0, 0, 0, 0, 0, 0, 0, 0, 0, 0, 0, 0, 0, 0, 0, 0, 0, 0, 0, 0, 0, 0, 0, 0, 0, 0, 0, 0, 0, 0, 0, 0], [0, 0, 0, 0, 0, 0, 0, 0, 0, 0, 0, 0, 0, 0, 0, 0, 0, 0, 0, 0, 0, 0, 0, 0, 0, 0, 0, 0, 0, 0, 0, 0, 0, 0, 0, 0, 0, 0, 0, 0], [30, 48, 45, 32, 44, 49, 42, 48, 44, 49, 42, 44, 50, 45, 45, 45, 45, 47, 33, 39, 44, 42, 46, 34, 44, 35, 41, 37, 31, 45, 39, 46, 43, 47, 30, 39, 35, 34, 38, 38], [33, 50, 39, 44, 42, 41, 44, 33, 44, 38, 35, 39, 41, 48, 44, 39, 36, 32, 34, 30, 46, 37, 36, 30, 38, 33, 34, 32, 37, 35, 33, 35, 36, 47, 47, 32, 50, 36, 41, 48], [41, 34, 45, 43, 42, 36, 39, 49, 30, 48, 35, 43, 50, 47, 50, 35, 39, 33, 36, 32, 47, 49, 36, 48, 31, 34, 36, 50, 46, 33, 48, 41, 36, 50, 41, 45, 30, 33, 45, 48], [48, 34, 34, 34, 30, 50, 32, 44, 48, 37, 47, 50, 37, 50, 36, 34, 32, 47, 38, 42, 40, 42, 49, 34, 34, 39, 34, 30, 34, 31, 36, 45, 32, 40, 47, 33, 49, 35, 45, 42]], [[0, 0, 0, 0, 0, 0, 0, 0, 0, 0, 0, 0, 0, 0, 0, 0, 0, 0, 0, 0, 0, 0, 0, 0, 0, 0, 0, 0, 0, 0, 0, 0, 0, 0, 0, 0, 0, 0, 0, 0], [0, 0, 0, 0, 0, 0, 0, 0, 0, 0, 0, 0, 0, 0, 0, 0, 0, 0, 0, 0, 0, 0, 0, 0, 0, 0, 0, 0, 0, 0, 0, 0, 0, 0, 0, 0, 0, 0, 0, 0], [0, 0, 0, 0, 0, 0, 0, 0, 0, 0, 0, 0, 0, 0, 0, 0, 0, 0, 0, 0, 0, 0, 0, 0, 0, 0, 0, 0, 0, 0, 0, 0, 0, 0, 0, 0, 0, 0, 0, 0], [0, 0, 0, 0, 0, 0, 0, 0, 0, 0, 0, 0, 0, 0, 0, 0, 0, 0, 0, 0, 0, 0, 0, 0, 0, 0, 0, 0, 0, 0, 0, 0, 0, 0, 0, 0, 0, 0, 0, 0], [0, 0, 0, 0, 0, 0, 0, 0, 0, 0, 0, 0, 0, 0, 0, 0, 0, 0, 0, 0, 0, 0, 0, 0, 0, 0, 0, 0, 0, 0, 0, 0, 0, 0, 0, 0, 0, 0, 0, 0], [0, 0, 0, 0, 0, 0, 0, 0, 0, 0, 0, 0, 0, 0, 0, 0, 0, 0, 0, 0, 0, 0, 0, 0, 0, 0, 0, 0, 0, 0, 0, 0, 0, 0, 0, 0, 0, 0, 0, 0], [0, 0, 0, 0, 0, 0, 0, 0, 0, 0, 0, 0, 0, 0, 0, 0, 0, 0, 0, 0, 0, 0, 0, 0, 0, 0, 0, 0, 0, 0, 0, 0, 0, 0, 0, 0, 0, 0, 0, 0], [33, 33, 46, 38, 33, 39, 33, 36, 40, 47, 44, 35, 45, 49, 38, 50, 38, 43, 41, 46, 36, 39, 45, 49, 30, 36, 31, 49, 34, 46, 30, 46, 41, 46, 30, 43, 47, 49, 39, 50], [35, 33, 33, 47, 36, 40, 34, 37, 41, 34, 36, 30, 39, 34, 46, 39, 47, 50, 34, 32, 36, 45, 32, 47, 35, 49, 37, 37, 38, 41, 45, 41, 33, 49, 46, 46, 31, 50, 49, 45], [44, 31, 45, 43, 50, 39, 34, 45, 33, 44, 31, 45, 41, 35, 35, 44, 49, 41, 44, 43, 31, 48, 36, 30, 37, 37, 46, 50, 42, 37, 44, 35, 43, 44, 42, 44, 38, 45, 31, 43]], [[0, 0, 0, 0, 0, 0, 0, 0, 0, 0, 0, 0, 0, 0, 0, 0, 0, 0, 0, 0, 0, 0, 0, 0, 0, 0, 0, 0, 0, 0, 0, 0, 0, 0, 0, 0, 0, 0, 0, 0], [0, 0, 0, 0, 0, 0, 0, 0, 0, 0, 0, 0, 0, 0, 0, 0, 0, 0, 0, 0, 0, 0, 0, 0, 0, 0, 0, 0, 0, 0, 0, 0, 0, 0, 0, 0, 0, 0, 0, 0], [0, 0, 0, 0, 0, 0, 0, 0, 0, 0, 0, 0, 0, 0, 0, 0, 0, 0, 0, 0, 0, 0, 0, 0, 0, 0, 0, 0, 0, 0, 0, 0, 0, 0, 0, 0, 0, 0, 0, 0], [0, 0, 0, 0, 0, 0, 0, 0, 0, 0, 0, 0, 0, 0, 0, 0, 0, 0, 0, 0, 0, 0, 0, 0, 0, 0, 0, 0, 0, 0, 0, 0, 0, 0, 0, 0, 0, 0, 0, 0], [0, 0, 0, 0, 0, 0, 0, 0, 0, 0, 0, 0, 0, 0, 0, 0, 0, 0, 0, 0, 0, 0, 0, 0, 0, 0, 0, 0, 0, 0, 0, 0, 0, 0, 0, 0, 0, 0, 0, 0], [0, 0, 0, 0, 0, 0, 0, 0, 0, 0, 0, 0, 0, 0, 0, 0, 0, 0, 0, 0, 0, 0, 0, 0, 0, 0, 0, 0, 0, 0, 0, 0, 0, 0, 0, 0, 0, 0, 0, 0], [0, 0, 0, 0, 0, 0, 0, 0, 0, 0, 0, 0, 0, 0, 0, 0, 0, 0, 0, 0, 0, 0, 0, 0, 0, 0, 0, 0, 0, 0, 0, 0, 0, 0, 0, 0, 0, 0, 0, 0], [0, 0, 0, 0, 0, 0, 0, 0, 0, 0, 0, 0, 0, 0, 0, 0, 0, 0, 0, 0, 0, 0, 0, 0, 0, 0, 0, 0, 0, 0, 0, 0, 0, 0, 0, 0, 0, 0, 0, 0], [39, 39, 46, 39, 50, 39, 50, 36, 40, 44, 45, 32, 45, 33, 42, 42, 43, 37, 50, 38, 46, 45, 41, 30, 36, 32, 30, 37, 34, 34, 34, 38, 38, 33, 31, 42, 39, 37, 36, 40], [40, 34, 49, 46, 48, 47, 42, 44, 32, 41, 46, 39, 45, 44, 35, 46, 33, 33, 36, 48, 50, 41, 42, 32, 49, 39, 33, 30, 32, 46, 50, 49, 31, 36, 43, 49, 31, 34, 38, 39]], [[0, 0, 0, 0, 0, 0, 0, 0, 0, 0, 0, 0, 0, 0, 0, 0, 0, 0, 0, 0, 0, 0, 0, 0, 0, 0, 0, 0, 0, 0, 0, 0, 0, 0, 0, 0, 0, 0, 0, 0], [0, 0, 0, 0, 0, 0, 0, 0, 0, 0, 0, 0, 0, 0, 0, 0, 0, 0, 0, 0, 0, 0, 0, 0, 0, 0, 0, 0, 0, 0, 0, 0, 0, 0, 0, 0, 0, 0, 0, 0], [0, 0, 0, 0, 0, 0, 0, 0, 0, 0, 0, 0, 0, 0, 0, 0, 0, 0, 0, 0, 0, 0, 0, 0, 0, 0, 0, 0, 0, 0, 0, 0, 0, 0, 0, 0, 0, 0, 0, 0], [0, 0, 0, 0, 0, 0, 0, 0, 0, 0, 0, 0, 0, 0, 0, 0, 0, 0, 0, 0, 0, 0, 0, 0, 0, 0, 0, 0, 0, 0, 0, 0, 0, 0, 0, 0, 0, 0, 0, 0], [0, 0, 0, 0, 0, 0, 0, 0, 0, 0, 0, 0, 0, 0, 0, 0, 0, 0, 0, 0, 0, 0, 0, 0, 0, 0, 0, 0, 0, 0, 0, 0, 0, 0, 0, 0, 0, 0, 0, 0], [0, 0, 0, 0, 0, 0, 0, 0, 0, 0, 0, 0, 0, 0, 0, 0, 0, 0, 0, 0, 0, 0, 0, 0, 0, 0, 0, 0, 0, 0, 0, 0, 0, 0, 0, 0, 0, 0, 0, 0], [0, 0, 0, 0, 0, 0, 0, 0, 0, 0, 0, 0, 0, 0, 0, 0, 0, 0, 0, 0, 0, 0, 0, 0, 0, 0, 0, 0, 0, 0, 0, 0, 0, 0, 0, 0, 0, 0, 0, 0], [0, 0, 0, 0, 0, 0, 0, 0, 0, 0, 0, 0, 0, 0, 0, 0, 0, 0, 0, 0, 0, 0, 0, 0, 0, 0, 0, 0, 0, 0, 0, 0, 0, 0, 0, 0, 0, 0, 0, 0], [0, 0, 0, 0, 0, 0, 0, 0, 0, 0, 0, 0, 0, 0, 0, 0, 0, 0, 0, 0, 0, 0, 0, 0, 0, 0, 0, 0, 0, 0, 0, 0, 0, 0, 0, 0, 0, 0, 0, 0], [44, 34, 36, 31, 44, 42, 30, 32, 34, 36, 50, 42, 44, 50, 42, 42, 41, 44, 43, 41, 44, 34, 33, 44, 37, 46, 43, 38, 49, 50, 38, 34, 37, 41, 32, 50, 44, 35, 37, 45]], [[0, 0, 0, 0, 0, 0, 0, 0, 0, 0, 0, 0, 0, 0, 0, 0, 0, 0, 0, 0, 0, 0, 0, 0, 0, 0, 0, 0, 0, 0, 0, 0, 0, 0, 0, 0, 0, 0, 0, 0], [0, 0, 0, 0, 0, 0, 0, 0, 0, 0, 0, 0, 0, 0, 0, 0, 0, 0, 0, 0, 0, 0, 0, 0, 0, 0, 0, 0, 0, 0, 0, 0, 0, 0, 0, 0, 0, 0, 0, 0], [0, 0, 0, 0, 0, 0, 0, 0, 0, 0, 0, 0, 0, 0, 0, 0, 0, 0, 0, 0, 0, 0, 0, 0, 0, 0, 0, 0, 0, 0, 0, 0, 0, 0, 0, 0, 0, 0, 0, 0], [0, 0, 0, 0, 0, 0, 0, 0, 0, 0, 0, 0, 0, 0, 0, 0, 0, 0, 0, 0, 0, 0, 0, 0, 0, 0, 0, 0, 0, 0, 0, 0, 0, 0, 0, 0, 0, 0, 0, 0], [0, 0, 0, 0, 0, 0, 0, 0, 0, 0, 0, 0, 0, 0, 0, 0, 0, 0, 0, 0, 0, 0, 0, 0, 0, 0, 0, 0, 0, 0, 0, 0, 0, 0, 0, 0, 0, 0, 0, 0], [0, 0, 0, 0, 0, 0, 0, 0, 0, 0, 0, 0, 0, 0, 0, 0, 0, 0, 0, 0, 0, 0, 0, 0, 0, 0, 0, 0, 0, 0, 0, 0, 0, 0, 0, 0, 0, 0, 0, 0], [0, 0, 0, 0, 0, 0, 0, 0, 0, 0, 0, 0, 0, 0, 0, 0, 0, 0, 0, 0, 0, 0, 0, 0, 0, 0, 0, 0, 0, 0, 0, 0, 0, 0, 0, 0, 0, 0, 0, 0], [0, 0, 0, 0, 0, 0, 0, 0, 0, 0, 0, 0, 0, 0, 0, 0, 0, 0, 0, 0, 0, 0, 0, 0, 0, 0, 0, 0, 0, 0, 0, 0, 0, 0, 0, 0, 0, 0, 0, 0], [0, 0, 0, 0, 0, 0, 0, 0, 0, 0, 0, 0, 0, 0, 0, 0, 0, 0, 0, 0, 0, 0, 0, 0, 0, 0, 0, 0, 0, 0, 0, 0, 0, 0, 0, 0, 0, 0, 0, 0], [0, 0, 0, 0, 0, 0, 0, 0, 0, 0, 0, 0, 0, 0, 0, 0, 0, 0, 0, 0, 0, 0, 0, 0, 0, 0, 0, 0, 0, 0, 0, 0, 0, 0, 0, 0, 0, 0, 0, 0]]];

q = [[[9, 119], [14, 120], [23, 121], [14, 113], [12, 109], [6, 121], [15, 124], [16, 123], [15, 116], [12, 120], [14, 122], [18, 114], [9, 109], [22, 107], [8, 112], [23, 115], [6, 117], [19, 120], [6, 124], [8, 118], [8, 108], [15, 119], [7, 119], [16, 119], [24, 105], [5, 110], [18, 117], [16, 114], [13, 114], [13, 111], [11, 113], [7, 115], [19, 123], [19, 121], [15, 122], [21, 113], [20, 111], [18, 107], [11, 115], [8, 112]], [[21, 124], [24, 107], [24, 110], [19, 117], [14, 117], [22, 125], [9, 116], [24, 108], [19, 109], [24, 111], [11, 112], [23, 107], [18, 115], [22, 124], [9, 118], [9, 124], [14, 106], [15, 123], [21, 110], [5, 122], [25, 112], [5, 124], [20, 116], [13, 123], [7, 110], [6, 118], [8, 124], [16, 106], [21, 116], [22, 105], [5, 115], [18, 120], [10, 111], [20, 125], [8, 124], [9, 120], [14, 108], [9, 119], [5, 123], [22, 122]], [[18, 116], [12, 124], [6, 121], [14, 120], [17, 108], [7, 119], [24, 119], [20, 117], [19, 106], [10, 112], [13, 108], [25, 105], [23, 105], [7, 118], [6, 105], [9, 123], [17, 116], [9, 122], [6, 119], [21, 125], [24, 117], [13, 105], [18, 120], [5, 119], [21, 121], [21, 107], [15, 114], [11, 124], [15, 109], [15, 106], [15, 105], [18, 124], [21, 107], [9, 109], [22, 115], [8, 115], [8, 115], [18, 117], [13, 110], [12, 114]], [[23, 120], [7, 114], [9, 107], [13, 117], [7, 112], [17, 123], [14, 122], [10, 106], [17, 105], [9, 109], [11, 108], [22, 116], [25, 108], [19, 109], [12, 121], [5, 116], [20, 117], [5, 111], [24, 112], [22, 122], [7, 109], [11, 121], [24, 111], [19, 112], [8, 112], [15, 112], [9, 125], [21, 118], [11, 120], [9, 114], [15, 121], [12, 108], [18, 121], [25, 125], [8, 121], [14, 123], [20, 122], [21, 120], [22, 108], [8, 122]], [[7, 120], [8, 105], [13, 114], [10, 113], [12, 115], [25, 118], [7, 108], [5, 124], [14, 115], [17, 123], [16, 105], [15, 108], [10, 121], [9, 111], [6, 121], [16, 124], [6, 120], [23, 119], [23, 121], [10, 124], [16, 117], [5, 110], [16, 121], [11, 109], [23, 109], [15, 119], [6, 122], [13, 122], [12, 122], [21, 123], [10, 105], [15, 117], [21, 105], [12, 117], [14, 108], [14, 111], [24, 112], [22, 125], [13, 107], [5, 106]], [[17, 105], [9, 114], [22, 111], [8, 110], [19, 123], [8, 112], [7, 123], [11, 105], [14, 122], [14, 116], [17, 111], [23, 112], [25, 119], [21, 124], [12, 123], [20, 107], [8, 118], [20, 114], [9, 107], [5, 119], [8, 110], [16, 106], [16, 111], [23, 107], [22, 116], [20, 109], [17, 124], [21, 114], [11, 108], [12, 111], [9, 114], [15, 120], [21, 113], [17, 113], [13, 125], [18, 118], [23, 105], [6, 106], [8, 108], [20, 108]], [[14, 125], [12, 120], [24, 111], [12, 112], [14, 109], [5, 124], [24, 118], [11, 108], [13, 121], [21, 120], [15, 117], [18, 113], [14, 107], [18, 115], [5, 124], [11, 110], [21, 124], [16, 123], [5, 113], [17, 124], [6, 111], [10, 125], [21, 105], [11, 105], [13, 119], [24, 114], [13, 122], [25, 119], [10, 125], [21, 117], [11, 124], [22, 109], [11, 107], [16, 110], [15, 113], [17, 110], [21, 107], [11, 120], [21, 114], [24, 116]], [[22, 122], [20, 108], [21, 114], [12, 124], [17, 107], [24, 108], [21, 120], [7, 123], [9, 118], [23, 106], [13, 111], [11, 110], [19, 115], [17, 109], [17, 112], [20, 110], [14, 113], [10, 118], [11, 106], [16, 107], [8, 114], [7, 123], [21, 110], [16, 116], [24, 116], [9, 124], [16, 124], [15, 105], [10, 110], [23, 114], [10, 123], [13, 124], [9, 115], [6, 123], [18, 122], [23, 120], [19, 122], [22, 124], [13, 116], [18, 115]], [[6, 124], [11, 121], [16, 123], [17, 125], [6, 113], [8, 115], [18, 120], [24, 111], [19, 117], [9, 114], [18, 116], [18, 123], [7, 117], [13, 121], [11, 112], [20, 120], [19, 110], [22, 117], [19, 125], [20, 106], [14, 114], [10, 115], [6, 117], [6, 106], [25, 105], [7, 106], [8, 108], [18, 118], [19, 121], [17, 117], [6, 113], [25, 118], [13, 118], [12, 122], [22, 116], [23, 113], [8, 116], [12, 105], [5, 113], [19, 111]], [[7, 121], [14, 119], [11, 124], [6, 111], [11, 117], [25, 111], [18, 108], [10, 118], [9, 125], [10, 123], [13, 114], [23, 108], [12, 120], [17, 125], [11, 109], [14, 112], [12, 117], [19, 105], [20, 109], [8, 112], [8, 119], [8, 119], [20, 119], [25, 114], [19, 105], [21, 124], [25, 123], [23, 109], [23, 112], [11, 123], [19, 121], [13, 118], [21, 118], [25, 121], [20, 108], [22, 122], [16, 105], [8, 124], [24, 122], [20, 105]]];
Q = [[44, 371], [48, 372], [46, 367], [47, 370], [43, 370], [48, 364], [49, 371], [49, 370], [46, 370], [51, 372]];
